NAME          EXMIP2
ROWS
 N  OBJECTRW
 E  R0000001
 E  R0000002
 E  R0000003
 E  R0000004
 G  R0000005
 G  R0000006
 G  R0000007
 G  R0000008
COLUMNS
    INT1      'MARKER'                 'INTORG'
    C0000001  OBJECTRW     28.000000   R0000001      1.000000
    C0000001  R0000005     -1.000000
    C0000002  OBJECTRW     84.000000   R0000001      1.000000
    C0000002  R0000006     -1.000000
    C0000003  OBJECTRW    112.000000   R0000001      1.000000
    C0000003  R0000007     -1.000000
    C0000004  OBJECTRW    112.000000   R0000001      1.000000
    C0000004  R0000008     -1.000000
    C0000005  OBJECTRW     60.000000   R0000002      1.000000
    C0000005  R0000005     -1.000000
    C0000006  OBJECTRW     20.000000   R0000002      1.000000
    C0000006  R0000006     -1.000000
    C0000007  OBJECTRW     50.000000   R0000002      1.000000
    C0000007  R0000007     -1.000000
    C0000008  OBJECTRW     50.000000   R0000002      1.000000
    C0000008  R0000008     -1.000000
    C0000009  OBJECTRW     96.000000   R0000003      1.000000
    C0000009  R0000005     -1.000000
    C0000010  OBJECTRW     60.000000   R0000003      1.000000
    C0000010  R0000006     -1.000000
    C0000011  OBJECTRW     24.000000   R0000003      1.000000
    C0000011  R0000007     -1.000000
    C0000012  OBJECTRW     60.000000   R0000003      1.000000
    C0000012  R0000008     -1.000000
    C0000013  OBJECTRW     64.000000   R0000004      1.000000
    C0000013  R0000005     -1.000000
    C0000014  OBJECTRW     40.000000   R0000004      1.000000
    C0000014  R0000006     -1.000000
    C0000015  OBJECTRW     40.000000   R0000004      1.000000
    C0000015  R0000007     -1.000000
    C0000016  OBJECTRW     16.000000   R0000004      1.000000
    C0000016  R0000008     -1.000000
    C0000017  OBJECTRW     50.000000   R0000005      4.000000
    C0000018  OBJECTRW     50.000000   R0000006      4.000000
    C0000019  OBJECTRW     50.000000   R0000007      4.000000
    C0000020  OBJECTRW     50.000000   R0000008      4.000000
    INT1END   'MARKER'                 'INTEND'
RHS
    RHS1      R0000001      1.000000   R0000002      1.000000
    RHS1      R0000003      1.000000   R0000004      1.000000
ENDATA